p cnf 113 97
-1 2 8 9 10 11 25 26 27 28 29 30 31 32 33 34 35 36 48 49 50 51 52 53 54 55 56 57 58 68 69 70 71 72 73 74 75 76 77 78 79 80 81 82 83 85 86 87 88 89 90 91 92 93 94 95 96 97 98 99 100 101 102 103 104 105 106 107 108 -15 0 
-2 1 8 9 10 11 25 26 27 28 29 30 31 32 33 34 35 36 48 49 50 51 52 53 54 55 56 57 58 68 69 70 71 72 73 74 75 76 77 78 79 80 81 82 83 85 86 87 88 89 90 91 92 93 94 95 96 97 98 99 100 101 102 103 104 105 106 107 109 -66 0 
-3 4 110 -45 0 
-4 3 111 -7 -67 0 
-5 39 -6 60 108 -15 0 
-7 67 -6 60 110 -45 0 
-8 1 2 9 10 11 25 26 27 28 29 30 31 32 33 34 35 36 48 49 50 51 52 53 54 55 56 57 58 68 69 70 71 72 73 74 75 76 77 78 79 80 81 82 83 85 86 87 88 89 90 91 92 93 94 95 96 97 98 99 100 101 102 103 104 105 106 107 110 -45 0 
-9 1 2 8 10 11 25 26 27 28 29 30 31 32 33 34 35 36 48 49 50 51 52 53 54 55 56 57 58 68 69 70 71 72 73 74 75 76 77 78 79 80 81 82 83 85 86 87 88 89 90 91 92 93 94 95 96 97 98 99 100 101 102 103 104 105 106 107 110 -45 0 
-10 1 2 8 9 11 25 26 27 28 29 30 31 32 33 34 35 36 48 49 50 51 52 53 54 55 56 57 58 68 69 70 71 72 73 74 75 76 77 78 79 80 81 82 83 85 86 87 88 89 90 91 92 93 94 95 96 97 98 99 100 101 102 103 104 105 106 107 110 -45 0 
-11 1 2 8 9 10 25 26 27 28 29 30 31 32 33 34 35 36 48 49 50 51 52 53 54 55 56 57 58 68 69 70 71 72 73 74 75 76 77 78 79 80 81 82 83 85 86 87 88 89 90 91 92 93 94 95 96 97 98 99 100 101 102 103 104 105 106 107 110 -45 0 
-12 14 17 -13 110 -45 0 
-14 12 17 -15 109 -66 0 
-16 112 0 
-17 12 14 111 -7 -67 0 
-18 44 109 -66 0 
-19 -20 84 112 0 
-21 109 -66 0 
-22 -23 -24 109 -66 0 
-25 1 2 8 9 10 11 26 27 28 29 30 31 32 33 34 35 36 48 49 50 51 52 53 54 55 56 57 58 68 69 70 71 72 73 74 75 76 77 78 79 80 81 82 83 85 86 87 88 89 90 91 92 93 94 95 96 97 98 99 100 101 102 103 104 105 106 107 110 -45 0 
-26 1 2 8 9 10 11 25 27 28 29 30 31 32 33 34 35 36 48 49 50 51 52 53 54 55 56 57 58 68 69 70 71 72 73 74 75 76 77 78 79 80 81 82 83 85 86 87 88 89 90 91 92 93 94 95 96 97 98 99 100 101 102 103 104 105 106 107 110 -45 0 
-27 1 2 8 9 10 11 25 26 28 29 30 31 32 33 34 35 36 48 49 50 51 52 53 54 55 56 57 58 68 69 70 71 72 73 74 75 76 77 78 79 80 81 82 83 85 86 87 88 89 90 91 92 93 94 95 96 97 98 99 100 101 102 103 104 105 106 107 110 -45 0 
-28 1 2 8 9 10 11 25 26 27 29 30 31 32 33 34 35 36 48 49 50 51 52 53 54 55 56 57 58 68 69 70 71 72 73 74 75 76 77 78 79 80 81 82 83 85 86 87 88 89 90 91 92 93 94 95 96 97 98 99 100 101 102 103 104 105 106 107 110 -45 0 
-29 1 2 8 9 10 11 25 26 27 28 30 31 32 33 34 35 36 48 49 50 51 52 53 54 55 56 57 58 68 69 70 71 72 73 74 75 76 77 78 79 80 81 82 83 85 86 87 88 89 90 91 92 93 94 95 96 97 98 99 100 101 102 103 104 105 106 107 110 -45 0 
-30 1 2 8 9 10 11 25 26 27 28 29 31 32 33 34 35 36 48 49 50 51 52 53 54 55 56 57 58 68 69 70 71 72 73 74 75 76 77 78 79 80 81 82 83 85 86 87 88 89 90 91 92 93 94 95 96 97 98 99 100 101 102 103 104 105 106 107 110 -45 0 
-31 1 2 8 9 10 11 25 26 27 28 29 30 32 33 34 35 36 48 49 50 51 52 53 54 55 56 57 58 68 69 70 71 72 73 74 75 76 77 78 79 80 81 82 83 85 86 87 88 89 90 91 92 93 94 95 96 97 98 99 100 101 102 103 104 105 106 107 110 -45 0 
-32 1 2 8 9 10 11 25 26 27 28 29 30 31 33 34 35 36 48 49 50 51 52 53 54 55 56 57 58 68 69 70 71 72 73 74 75 76 77 78 79 80 81 82 83 85 86 87 88 89 90 91 92 93 94 95 96 97 98 99 100 101 102 103 104 105 106 107 110 -45 0 
-33 1 2 8 9 10 11 25 26 27 28 29 30 31 32 34 35 36 48 49 50 51 52 53 54 55 56 57 58 68 69 70 71 72 73 74 75 76 77 78 79 80 81 82 83 85 86 87 88 89 90 91 92 93 94 95 96 97 98 99 100 101 102 103 104 105 106 107 110 -45 0 
-34 1 2 8 9 10 11 25 26 27 28 29 30 31 32 33 35 36 48 49 50 51 52 53 54 55 56 57 58 68 69 70 71 72 73 74 75 76 77 78 79 80 81 82 83 85 86 87 88 89 90 91 92 93 94 95 96 97 98 99 100 101 102 103 104 105 106 107 110 -45 0 
-35 1 2 8 9 10 11 25 26 27 28 29 30 31 32 33 34 36 48 49 50 51 52 53 54 55 56 57 58 68 69 70 71 72 73 74 75 76 77 78 79 80 81 82 83 85 86 87 88 89 90 91 92 93 94 95 96 97 98 99 100 101 102 103 104 105 106 107 110 -45 0 
-36 1 2 8 9 10 11 25 26 27 28 29 30 31 32 33 34 35 48 49 50 51 52 53 54 55 56 57 58 68 69 70 71 72 73 74 75 76 77 78 79 80 81 82 83 85 86 87 88 89 90 91 92 93 94 95 96 97 98 99 100 101 102 103 104 105 106 107 110 -45 0 
-37 61 64 109 -66 0 
-38 -39 5 -40 -41 111 -7 -67 0 
-42 113 -18 -44 0 
-43 113 -18 -44 0 
-16 -44 18 112 0 
-45 -46 -47 62 112 0 
-48 1 2 8 9 10 11 25 26 27 28 29 30 31 32 33 34 35 36 49 50 51 52 53 54 55 56 57 58 68 69 70 71 72 73 74 75 76 77 78 79 80 81 82 83 85 86 87 88 89 90 91 92 93 94 95 96 97 98 99 100 101 102 103 104 105 106 107 110 -45 0 
-49 1 2 8 9 10 11 25 26 27 28 29 30 31 32 33 34 35 36 48 50 51 52 53 54 55 56 57 58 68 69 70 71 72 73 74 75 76 77 78 79 80 81 82 83 85 86 87 88 89 90 91 92 93 94 95 96 97 98 99 100 101 102 103 104 105 106 107 110 -45 0 
-50 1 2 8 9 10 11 25 26 27 28 29 30 31 32 33 34 35 36 48 49 51 52 53 54 55 56 57 58 68 69 70 71 72 73 74 75 76 77 78 79 80 81 82 83 85 86 87 88 89 90 91 92 93 94 95 96 97 98 99 100 101 102 103 104 105 106 107 110 -45 0 
-51 1 2 8 9 10 11 25 26 27 28 29 30 31 32 33 34 35 36 48 49 50 52 53 54 55 56 57 58 68 69 70 71 72 73 74 75 76 77 78 79 80 81 82 83 85 86 87 88 89 90 91 92 93 94 95 96 97 98 99 100 101 102 103 104 105 106 107 110 -45 0 
-52 1 2 8 9 10 11 25 26 27 28 29 30 31 32 33 34 35 36 48 49 50 51 53 54 55 56 57 58 68 69 70 71 72 73 74 75 76 77 78 79 80 81 82 83 85 86 87 88 89 90 91 92 93 94 95 96 97 98 99 100 101 102 103 104 105 106 107 110 -45 0 
-53 1 2 8 9 10 11 25 26 27 28 29 30 31 32 33 34 35 36 48 49 50 51 52 54 55 56 57 58 68 69 70 71 72 73 74 75 76 77 78 79 80 81 82 83 85 86 87 88 89 90 91 92 93 94 95 96 97 98 99 100 101 102 103 104 105 106 107 110 -45 0 
-54 1 2 8 9 10 11 25 26 27 28 29 30 31 32 33 34 35 36 48 49 50 51 52 53 55 56 57 58 68 69 70 71 72 73 74 75 76 77 78 79 80 81 82 83 85 86 87 88 89 90 91 92 93 94 95 96 97 98 99 100 101 102 103 104 105 106 107 110 -45 0 
-55 1 2 8 9 10 11 25 26 27 28 29 30 31 32 33 34 35 36 48 49 50 51 52 53 54 56 57 58 68 69 70 71 72 73 74 75 76 77 78 79 80 81 82 83 85 86 87 88 89 90 91 92 93 94 95 96 97 98 99 100 101 102 103 104 105 106 107 110 -45 0 
-56 1 2 8 9 10 11 25 26 27 28 29 30 31 32 33 34 35 36 48 49 50 51 52 53 54 55 57 58 68 69 70 71 72 73 74 75 76 77 78 79 80 81 82 83 85 86 87 88 89 90 91 92 93 94 95 96 97 98 99 100 101 102 103 104 105 106 107 110 -45 0 
-57 1 2 8 9 10 11 25 26 27 28 29 30 31 32 33 34 35 36 48 49 50 51 52 53 54 55 56 58 68 69 70 71 72 73 74 75 76 77 78 79 80 81 82 83 85 86 87 88 89 90 91 92 93 94 95 96 97 98 99 100 101 102 103 104 105 106 107 110 -45 0 
-58 1 2 8 9 10 11 25 26 27 28 29 30 31 32 33 34 35 36 48 49 50 51 52 53 54 55 56 57 68 69 70 71 72 73 74 75 76 77 78 79 80 81 82 83 85 86 87 88 89 90 91 92 93 94 95 96 97 98 99 100 101 102 103 104 105 106 107 110 -45 0 
-59 -60 6 109 -66 0 
-61 37 64 109 -66 0 
-13 110 -45 0 
-62 47 111 -7 -67 0 
-63 110 -45 0 
-64 37 61 112 0 
-65 -66 -17 12 14 112 0 
-67 7 -65 112 0 
-68 1 2 8 9 10 11 25 26 27 28 29 30 31 32 33 34 35 36 48 49 50 51 52 53 54 55 56 57 58 69 70 71 72 73 74 75 76 77 78 79 80 81 82 83 85 86 87 88 89 90 91 92 93 94 95 96 97 98 99 100 101 102 103 104 105 106 107 109 -66 0 
-69 1 2 8 9 10 11 25 26 27 28 29 30 31 32 33 34 35 36 48 49 50 51 52 53 54 55 56 57 58 68 70 71 72 73 74 75 76 77 78 79 80 81 82 83 85 86 87 88 89 90 91 92 93 94 95 96 97 98 99 100 101 102 103 104 105 106 107 109 -66 0 
-70 1 2 8 9 10 11 25 26 27 28 29 30 31 32 33 34 35 36 48 49 50 51 52 53 54 55 56 57 58 68 69 71 72 73 74 75 76 77 78 79 80 81 82 83 85 86 87 88 89 90 91 92 93 94 95 96 97 98 99 100 101 102 103 104 105 106 107 109 -66 0 
-71 1 2 8 9 10 11 25 26 27 28 29 30 31 32 33 34 35 36 48 49 50 51 52 53 54 55 56 57 58 68 69 70 72 73 74 75 76 77 78 79 80 81 82 83 85 86 87 88 89 90 91 92 93 94 95 96 97 98 99 100 101 102 103 104 105 106 107 109 -66 0 
-72 1 2 8 9 10 11 25 26 27 28 29 30 31 32 33 34 35 36 48 49 50 51 52 53 54 55 56 57 58 68 69 70 71 73 74 75 76 77 78 79 80 81 82 83 85 86 87 88 89 90 91 92 93 94 95 96 97 98 99 100 101 102 103 104 105 106 107 109 -66 0 
-73 1 2 8 9 10 11 25 26 27 28 29 30 31 32 33 34 35 36 48 49 50 51 52 53 54 55 56 57 58 68 69 70 71 72 74 75 76 77 78 79 80 81 82 83 85 86 87 88 89 90 91 92 93 94 95 96 97 98 99 100 101 102 103 104 105 106 107 109 -66 0 
-74 1 2 8 9 10 11 25 26 27 28 29 30 31 32 33 34 35 36 48 49 50 51 52 53 54 55 56 57 58 68 69 70 71 72 73 75 76 77 78 79 80 81 82 83 85 86 87 88 89 90 91 92 93 94 95 96 97 98 99 100 101 102 103 104 105 106 107 109 -66 0 
-75 1 2 8 9 10 11 25 26 27 28 29 30 31 32 33 34 35 36 48 49 50 51 52 53 54 55 56 57 58 68 69 70 71 72 73 74 76 77 78 79 80 81 82 83 85 86 87 88 89 90 91 92 93 94 95 96 97 98 99 100 101 102 103 104 105 106 107 109 -66 0 
-76 1 2 8 9 10 11 25 26 27 28 29 30 31 32 33 34 35 36 48 49 50 51 52 53 54 55 56 57 58 68 69 70 71 72 73 74 75 77 78 79 80 81 82 83 85 86 87 88 89 90 91 92 93 94 95 96 97 98 99 100 101 102 103 104 105 106 107 109 -66 0 
-77 1 2 8 9 10 11 25 26 27 28 29 30 31 32 33 34 35 36 48 49 50 51 52 53 54 55 56 57 58 68 69 70 71 72 73 74 75 76 78 79 80 81 82 83 85 86 87 88 89 90 91 92 93 94 95 96 97 98 99 100 101 102 103 104 105 106 107 109 -66 0 
-78 1 2 8 9 10 11 25 26 27 28 29 30 31 32 33 34 35 36 48 49 50 51 52 53 54 55 56 57 58 68 69 70 71 72 73 74 75 76 77 79 80 81 82 83 85 86 87 88 89 90 91 92 93 94 95 96 97 98 99 100 101 102 103 104 105 106 107 109 -66 0 
-79 1 2 8 9 10 11 25 26 27 28 29 30 31 32 33 34 35 36 48 49 50 51 52 53 54 55 56 57 58 68 69 70 71 72 73 74 75 76 77 78 80 81 82 83 85 86 87 88 89 90 91 92 93 94 95 96 97 98 99 100 101 102 103 104 105 106 107 109 -66 0 
-80 1 2 8 9 10 11 25 26 27 28 29 30 31 32 33 34 35 36 48 49 50 51 52 53 54 55 56 57 58 68 69 70 71 72 73 74 75 76 77 78 79 81 82 83 85 86 87 88 89 90 91 92 93 94 95 96 97 98 99 100 101 102 103 104 105 106 107 109 -66 0 
-81 1 2 8 9 10 11 25 26 27 28 29 30 31 32 33 34 35 36 48 49 50 51 52 53 54 55 56 57 58 68 69 70 71 72 73 74 75 76 77 78 79 80 82 83 85 86 87 88 89 90 91 92 93 94 95 96 97 98 99 100 101 102 103 104 105 106 107 109 -66 0 
-82 1 2 8 9 10 11 25 26 27 28 29 30 31 32 33 34 35 36 48 49 50 51 52 53 54 55 56 57 58 68 69 70 71 72 73 74 75 76 77 78 79 80 81 83 85 86 87 88 89 90 91 92 93 94 95 96 97 98 99 100 101 102 103 104 105 106 107 109 -66 0 
-83 1 2 8 9 10 11 25 26 27 28 29 30 31 32 33 34 35 36 48 49 50 51 52 53 54 55 56 57 58 68 69 70 71 72 73 74 75 76 77 78 79 80 81 82 85 86 87 88 89 90 91 92 93 94 95 96 97 98 99 100 101 102 103 104 105 106 107 109 -66 0 
-84 20 111 -7 -67 0 
-85 1 2 8 9 10 11 25 26 27 28 29 30 31 32 33 34 35 36 48 49 50 51 52 53 54 55 56 57 58 68 69 70 71 72 73 74 75 76 77 78 79 80 81 82 83 86 87 88 89 90 91 92 93 94 95 96 97 98 99 100 101 102 103 104 105 106 107 111 -7 -67 0 
-86 1 2 8 9 10 11 25 26 27 28 29 30 31 32 33 34 35 36 48 49 50 51 52 53 54 55 56 57 58 68 69 70 71 72 73 74 75 76 77 78 79 80 81 82 83 85 87 88 89 90 91 92 93 94 95 96 97 98 99 100 101 102 103 104 105 106 107 111 -7 -67 0 
-87 1 2 8 9 10 11 25 26 27 28 29 30 31 32 33 34 35 36 48 49 50 51 52 53 54 55 56 57 58 68 69 70 71 72 73 74 75 76 77 78 79 80 81 82 83 85 86 88 89 90 91 92 93 94 95 96 97 98 99 100 101 102 103 104 105 106 107 111 -7 -67 0 
-53 1 2 8 9 10 11 25 26 27 28 29 30 31 32 33 34 35 36 48 49 50 51 52 54 55 56 57 58 68 69 70 71 72 73 74 75 76 77 78 79 80 81 82 83 85 86 87 88 89 90 91 92 93 94 95 96 97 98 99 100 101 102 103 104 105 106 107 111 -7 -67 0 
-88 1 2 8 9 10 11 25 26 27 28 29 30 31 32 33 34 35 36 48 49 50 51 52 53 54 55 56 57 58 68 69 70 71 72 73 74 75 76 77 78 79 80 81 82 83 85 86 87 89 90 91 92 93 94 95 96 97 98 99 100 101 102 103 104 105 106 107 111 -7 -67 0 
-89 1 2 8 9 10 11 25 26 27 28 29 30 31 32 33 34 35 36 48 49 50 51 52 53 54 55 56 57 58 68 69 70 71 72 73 74 75 76 77 78 79 80 81 82 83 85 86 87 88 90 91 92 93 94 95 96 97 98 99 100 101 102 103 104 105 106 107 111 -7 -67 0 
-90 1 2 8 9 10 11 25 26 27 28 29 30 31 32 33 34 35 36 48 49 50 51 52 53 54 55 56 57 58 68 69 70 71 72 73 74 75 76 77 78 79 80 81 82 83 85 86 87 88 89 91 92 93 94 95 96 97 98 99 100 101 102 103 104 105 106 107 111 -7 -67 0 
-91 1 2 8 9 10 11 25 26 27 28 29 30 31 32 33 34 35 36 48 49 50 51 52 53 54 55 56 57 58 68 69 70 71 72 73 74 75 76 77 78 79 80 81 82 83 85 86 87 88 89 90 92 93 94 95 96 97 98 99 100 101 102 103 104 105 106 107 111 -7 -67 0 
-92 1 2 8 9 10 11 25 26 27 28 29 30 31 32 33 34 35 36 48 49 50 51 52 53 54 55 56 57 58 68 69 70 71 72 73 74 75 76 77 78 79 80 81 82 83 85 86 87 88 89 90 91 93 94 95 96 97 98 99 100 101 102 103 104 105 106 107 111 -7 -67 0 
-93 1 2 8 9 10 11 25 26 27 28 29 30 31 32 33 34 35 36 48 49 50 51 52 53 54 55 56 57 58 68 69 70 71 72 73 74 75 76 77 78 79 80 81 82 83 85 86 87 88 89 90 91 92 94 95 96 97 98 99 100 101 102 103 104 105 106 107 111 -7 -67 0 
-94 1 2 8 9 10 11 25 26 27 28 29 30 31 32 33 34 35 36 48 49 50 51 52 53 54 55 56 57 58 68 69 70 71 72 73 74 75 76 77 78 79 80 81 82 83 85 86 87 88 89 90 91 92 93 95 96 97 98 99 100 101 102 103 104 105 106 107 111 -7 -67 0 
-95 1 2 8 9 10 11 25 26 27 28 29 30 31 32 33 34 35 36 48 49 50 51 52 53 54 55 56 57 58 68 69 70 71 72 73 74 75 76 77 78 79 80 81 82 83 85 86 87 88 89 90 91 92 93 94 96 97 98 99 100 101 102 103 104 105 106 107 111 -7 -67 0 
-96 1 2 8 9 10 11 25 26 27 28 29 30 31 32 33 34 35 36 48 49 50 51 52 53 54 55 56 57 58 68 69 70 71 72 73 74 75 76 77 78 79 80 81 82 83 85 86 87 88 89 90 91 92 93 94 95 97 98 99 100 101 102 103 104 105 106 107 110 -45 0 
-97 1 2 8 9 10 11 25 26 27 28 29 30 31 32 33 34 35 36 48 49 50 51 52 53 54 55 56 57 58 68 69 70 71 72 73 74 75 76 77 78 79 80 81 82 83 85 86 87 88 89 90 91 92 93 94 95 96 98 99 100 101 102 103 104 105 106 107 110 -45 0 
-98 1 2 8 9 10 11 25 26 27 28 29 30 31 32 33 34 35 36 48 49 50 51 52 53 54 55 56 57 58 68 69 70 71 72 73 74 75 76 77 78 79 80 81 82 83 85 86 87 88 89 90 91 92 93 94 95 96 97 99 100 101 102 103 104 105 106 107 110 -45 0 
-99 1 2 8 9 10 11 25 26 27 28 29 30 31 32 33 34 35 36 48 49 50 51 52 53 54 55 56 57 58 68 69 70 71 72 73 74 75 76 77 78 79 80 81 82 83 85 86 87 88 89 90 91 92 93 94 95 96 97 98 100 101 102 103 104 105 106 107 110 -45 0 
-100 1 2 8 9 10 11 25 26 27 28 29 30 31 32 33 34 35 36 48 49 50 51 52 53 54 55 56 57 58 68 69 70 71 72 73 74 75 76 77 78 79 80 81 82 83 85 86 87 88 89 90 91 92 93 94 95 96 97 98 99 101 102 103 104 105 106 107 111 -7 -67 0 
-101 1 2 8 9 10 11 25 26 27 28 29 30 31 32 33 34 35 36 48 49 50 51 52 53 54 55 56 57 58 68 69 70 71 72 73 74 75 76 77 78 79 80 81 82 83 85 86 87 88 89 90 91 92 93 94 95 96 97 98 99 100 102 103 104 105 106 107 110 -45 0 
-102 1 2 8 9 10 11 25 26 27 28 29 30 31 32 33 34 35 36 48 49 50 51 52 53 54 55 56 57 58 68 69 70 71 72 73 74 75 76 77 78 79 80 81 82 83 85 86 87 88 89 90 91 92 93 94 95 96 97 98 99 100 101 103 104 105 106 107 110 -45 0 
-103 1 2 8 9 10 11 25 26 27 28 29 30 31 32 33 34 35 36 48 49 50 51 52 53 54 55 56 57 58 68 69 70 71 72 73 74 75 76 77 78 79 80 81 82 83 85 86 87 88 89 90 91 92 93 94 95 96 97 98 99 100 101 102 104 105 106 107 110 -45 0 
-104 1 2 8 9 10 11 25 26 27 28 29 30 31 32 33 34 35 36 48 49 50 51 52 53 54 55 56 57 58 68 69 70 71 72 73 74 75 76 77 78 79 80 81 82 83 85 86 87 88 89 90 91 92 93 94 95 96 97 98 99 100 101 102 103 105 106 107 110 -45 0 
-105 1 2 8 9 10 11 25 26 27 28 29 30 31 32 33 34 35 36 48 49 50 51 52 53 54 55 56 57 58 68 69 70 71 72 73 74 75 76 77 78 79 80 81 82 83 85 86 87 88 89 90 91 92 93 94 95 96 97 98 99 100 101 102 103 104 106 107 110 -45 0 
-1 2 8 9 10 11 25 26 27 28 29 30 31 32 33 34 35 36 48 49 50 51 52 53 54 55 56 57 58 68 69 70 71 72 73 74 75 76 77 78 79 80 81 82 83 85 86 87 88 89 90 91 92 93 94 95 96 97 98 99 100 101 102 103 104 105 106 107 110 -45 0 
-106 1 2 8 9 10 11 25 26 27 28 29 30 31 32 33 34 35 36 48 49 50 51 52 53 54 55 56 57 58 68 69 70 71 72 73 74 75 76 77 78 79 80 81 82 83 85 86 87 88 89 90 91 92 93 94 95 96 97 98 99 100 101 102 103 104 105 107 110 -45 0 
-107 1 2 8 9 10 11 25 26 27 28 29 30 31 32 33 34 35 36 48 49 50 51 52 53 54 55 56 57 58 68 69 70 71 72 73 74 75 76 77 78 79 80 81 82 83 85 86 87 88 89 90 91 92 93 94 95 96 97 98 99 100 101 102 103 104 105 106 110 -45 0 
